TCS_Benchmarks/redos_fix/snort3_output_distinct_2001_2000_1_0.txt
([^"]*)(\s*)
([^"]*)(\.[mM][dD][eE])(\s*)